1 51 2
-152 -882 -682 -92 -587 -949 -438 -803 -75 -450 -693 -615 -754 -368 -104 -859 -585 -858 -130 -419 -800 -754 -208 -387 -102 -747 -843 -990 -942 -307 -389 -185 -225 -305 -346 -440 -169 -496 -917 -898 -289 -237 -563 -314 -737 -655 -383 -276 -415 -941 0 
-854 -186 -363 -929 -492 -136 -505 -175 -996 -488 -361 -337 -298 -645 -902 -156 -405 -103 -798 -630 -288 -229 -851 -516 -915 -168 -179 -22 -64 -598 -709 -851 -846 -737 -632 -479 -868 -407 -15 -49 -648 -709 -434 -586 -323 -405 -576 -664 -503 -36 0 
820 940 1068 1078 1053 1186 970 919 1141 1125 1014 1061 988 1182 933 1042 1053 795 859 1019 1273 1060 1076 994 886 928 877 1060 976 990 938 839 1226 875 876 1019 1133 1051 1115 785 907 829 1000 870 1236 925 1147 804 863 1009 1 
24906 
